RT is False
Default write of storage_offers_DA.csv just to have a file (but constraint should be inactive)
Reading model...
...model read.
creating competitive generators file...
...competitive generators recorded.
Loading data...
.. day-ahead data with real-time VRE data read.
Compiling instance...
...instance created.
Creating Offer Mitigation (model will solve as dispatch if TRUE)...
Solving...

Welcome to IBM(R) ILOG(R) CPLEX(R) Interactive Optimizer 12.8.0.0
  with Simplex, Mixed Integer & Barrier Optimizers
5725-A06 5725-A29 5724-Y48 5724-Y49 5724-Y54 5724-Y55 5655-Y21
Copyright IBM Corp. 1988, 2017.  All Rights Reserved.

Type 'help' for a list of available commands.
Type 'help' followed by a command name for more
information on commands.

CPLEX> Logfile 'cplex.log' closed.
Logfile 'C:\Users\llavi\Desktop\test919\logs\tmp6oki2cb0.cplex.log' open.
CPLEX> New value for parallel optimization mode: -1
CPLEX> New value for mixed integer optimality gap tolerance: 0.01
CPLEX> New value for integrality tolerance: 1e-09
CPLEX> New value for feasibility tolerance: 0.01
CPLEX> New value for deterministic time limit in ticks: 75000
CPLEX> Problem 'C:\Users\llavi\Desktop\test919\logs\tmpsxfnjmo8.pyomo.lp' read.
Read time = 0.13 sec. (3.03 ticks)
CPLEX> Problem name         : C:\Users\llavi\Desktop\test919\logs\tmpsxfnjmo8.pyomo.lp
Objective sense      : Minimize
Variables            :   26465  [Nneg: 1,  Box: 22000,  Free: 4464]
Objective nonzeros   :    2496
Linear constraints   :   27515  [Less: 14006,  Greater: 4416,  Equal: 9093]
  Nonzeros           :   89171
  RHS nonzeros       :   12271

Variables            : Min LB: -5000.000        Max UB: 1000000.       
Objective nonzeros   : Min   : 15.73158         Max   : 124.0997       
Linear constraints   :
  Nonzeros           : Min   : 0.8500000        Max   : 3000.000       
  RHS nonzeros       : Min   : 0.1083333        Max   : 5000.000       
CPLEX> CPXPARAM_Simplex_Tolerances_Feasibility          0.01
CPXPARAM_Parallel                                -1
CPXPARAM_DetTimeLimit                            75000
CPXPARAM_MIP_Tolerances_MIPGap                   0.01
CPXPARAM_MIP_Tolerances_Integrality              1.0000000000000001e-09
Parallel mode: opportunistic, using up to 4 threads for concurrent optimization.
Tried aggregator 1 time.
LP Presolve eliminated 21401 rows and 15895 columns.
Aggregator did 724 substitutions.
Reduced LP has 5390 rows, 9846 columns, and 31760 nonzeros.
Presolve time = 0.06 sec. (22.46 ticks)

Iteration log . . .
Iteration:     1   Dual objective     =             0.000000
Perturbation started.
Iteration:   101   Dual objective     =             0.000000
Iteration:   373   Dual objective     =             1.342936
Iteration:   631   Dual objective     =             1.877193
Iteration:   937   Dual objective     =             2.041875
Iteration:  1136   Dual objective     =             2.163381
Iteration:  1479   Dual objective     =             2.221452
Iteration:  1781   Dual objective     =             2.253438
Iteration:  2079   Dual objective     =             2.271782
Iteration:  2372   Dual objective     =             2.284397
Iteration:  2683   Dual objective     =             2.295992
Iteration:  3052   Dual objective     =          3526.554656
Iteration:  3416   Dual objective     =          7372.448941
Iteration:  3736   Dual objective     =         22910.000297
Iteration:  4103   Dual objective     =         28349.645722
Removing perturbation.

Dual simplex solved model.


Dual simplex - Optimal:  Objective =  3.0745830447e+04
Solution time =    0.28 sec.  Iterations = 4542 (0)
Deterministic time = 97.08 ticks  (344.26 ticks/sec)

CPLEX> Solution written to file 'C:\Users\llavi\Desktop\test919\logs\tmpge8lqlco.cplex.sol'.
CPLEX> Exporting results... 
...storage offer mitigation file created
Converting model to MPEC...
...converted
NOTE: initial MIP solve with only storage competitive to get feasible solution
Solving...

Welcome to IBM(R) ILOG(R) CPLEX(R) Interactive Optimizer 12.8.0.0
  with Simplex, Mixed Integer & Barrier Optimizers
5725-A06 5725-A29 5724-Y48 5724-Y49 5724-Y54 5724-Y55 5655-Y21
Copyright IBM Corp. 1988, 2017.  All Rights Reserved.

Type 'help' for a list of available commands.
Type 'help' followed by a command name for more
information on commands.

CPLEX> Logfile 'cplex.log' closed.
Logfile 'C:\Users\llavi\Desktop\test919\logs\tmpqf19z6ns.cplex.log' open.
CPLEX> New value for parallel optimization mode: -1
CPLEX> New value for mixed integer optimality gap tolerance: 0.01
CPLEX> New value for integrality tolerance: 1e-09
CPLEX> New value for feasibility tolerance: 0.01
CPLEX> New value for deterministic time limit in ticks: 75000
CPLEX> Problem 'C:\Users\llavi\Desktop\test919\logs\tmp_x8tdl28.pyomo.lp' read.
Read time = 0.30 sec. (13.96 ticks)
CPLEX> Problem name         : C:\Users\llavi\Desktop\test919\logs\tmp_x8tdl28.pyomo.lp
Objective sense      : Maximize
Variables            :   53805  [Nneg: 1,  Box: 22000,  Free: 4464,
                                 Binary: 27340]
Objective nonzeros   :    9078
Linear constraints   :  123205  [Less: 41346,  Greater: 59096,  Equal: 22763]
  Nonzeros           :  291705
  RHS nonzeros       :   67435

Variables            : Min LB: -5000.000        Max UB: 1000000.       
Objective nonzeros   : Min   : 0.1083333        Max   : 2500.000       
Linear constraints   :
  Nonzeros           : Min   : 0.1083333        Max   : 1000000.       
  RHS nonzeros       : Min   : 0.1083333        Max   : 1000000.       
CPLEX> CPXPARAM_Simplex_Tolerances_Feasibility          0.01
CPXPARAM_Parallel                                -1
CPXPARAM_DetTimeLimit                            75000
CPXPARAM_MIP_Tolerances_MIPGap                   0.01
CPXPARAM_MIP_Tolerances_Integrality              1.0000000000000001e-09
Tried aggregator 3 times.
MIP Presolve eliminated 88675 rows and 19023 columns.
MIP Presolve added 3356 rows and 0 columns.
MIP Presolve modified 23872 coefficients.
Aggregator did 12989 substitutions.
Reduced MIP has 24897 rows, 21237 columns, and 70969 nonzeros.
Reduced MIP has 8412 binaries, 0 generals, 0 SOSs, and 0 indicators.
Presolve time = 0.27 sec. (165.54 ticks)
Probing fixed 422 vars, tightened 2906 bounds.
Probing time = 3.09 sec. (906.71 ticks)
Tried aggregator 2 times.
MIP Presolve eliminated 947 rows and 845 columns.
MIP Presolve modified 2234 coefficients.
Aggregator did 36 substitutions.
Reduced MIP has 23914 rows, 20356 columns, and 68117 nonzeros.
Reduced MIP has 7990 binaries, 0 generals, 0 SOSs, and 0 indicators.
Presolve time = 0.16 sec. (55.70 ticks)
Probing time = 0.05 sec. (15.29 ticks)
Clique table members: 6330.
MIP emphasis: balance optimality and feasibility.
MIP search method: dynamic search.
Parallel mode: opportunistic, using up to 4 threads.
Root relaxation solution time = 0.59 sec. (452.73 ticks)

        Nodes                                         Cuts/
   Node  Left     Objective  IInf  Best Integer    Best Bound    ItCnt     Gap

      0     0        0.0000   657                      0.0000     3398         
*     0     0      integral     0        0.0000        0.0000     3398    0.00%
Elapsed time = 7.44 sec. (2819.08 ticks, tree = 0.01 MB, solutions = 1)

Root node processing (before b&c):
  Real time             =    7.45 sec. (2821.35 ticks)
Parallel b&c, 4 threads:
  Real time             =    0.00 sec. (0.00 ticks)
  Sync time (average)   =    0.00 sec.
  Wait time (average)   =    0.00 sec.
                          ------------
Total (root+branch&cut) =    7.45 sec. (2821.35 ticks)

Solution pool: 1 solution saved.

MIP - Integer optimal solution:  Objective =  4.7293724492e-10
Solution time =    7.47 sec.  Iterations = 3398  Nodes = 0
Deterministic time = 2821.50 ticks  (377.81 ticks/sec)

CPLEX> Incumbent solution written to file 'C:\Users\llavi\Desktop\test919\logs\tmpe1mcnz5x.cplex.sol'.
CPLEX> NOTE: no warmstart specified for MIP iteration, default behavior is true
NOTE: resolving with all competitive generators using storage-only solution to warmstart
Solving...

Welcome to IBM(R) ILOG(R) CPLEX(R) Interactive Optimizer 12.8.0.0
  with Simplex, Mixed Integer & Barrier Optimizers
5725-A06 5725-A29 5724-Y48 5724-Y49 5724-Y54 5724-Y55 5655-Y21
Copyright IBM Corp. 1988, 2017.  All Rights Reserved.

Type 'help' for a list of available commands.
Type 'help' followed by a command name for more
information on commands.

CPLEX> Logfile 'cplex.log' closed.
Logfile 'C:\Users\llavi\Desktop\test919\logs\tmpobdycrjq.cplex.log' open.
CPLEX> New value for parallel optimization mode: -1
CPLEX> New value for mixed integer optimality gap tolerance: 0.01
CPLEX> New value for integrality tolerance: 1e-09
CPLEX> New value for feasibility tolerance: 0.01
CPLEX> New value for deterministic time limit in ticks: 75000
CPLEX> Problem 'C:\Users\llavi\Desktop\test919\logs\tmpk2amgz2b.pyomo.lp' read.
Read time = 0.27 sec. (13.98 ticks)
CPLEX> MIP start file 'C:\Users\llavi\Desktop\test919\logs\tmpi2lw35a8.cplex.mst' read.
CPLEX> Problem name         : C:\Users\llavi\Desktop\test919\logs\tmpk2amgz2b.pyomo.lp
Objective sense      : Maximize
Variables            :   54525  [Nneg: 1,  Box: 22720,  Free: 4464,
                                 Binary: 27340]
Objective nonzeros   :    9774
Linear constraints   :  123205  [Less: 41346,  Greater: 59096,  Equal: 22763]
  Nonzeros           :  291705
  RHS nonzeros       :   67435

Variables            : Min LB: -5000.000        Max UB: 1000000.       
Objective nonzeros   : Min   : 0.1083333        Max   : 2500.000       
Linear constraints   :
  Nonzeros           : Min   : 0.1083333        Max   : 1000000.       
  RHS nonzeros       : Min   : 0.1083333        Max   : 1000000.       
CPLEX> CPXPARAM_Simplex_Tolerances_Feasibility          0.01
CPXPARAM_Parallel                                -1
CPXPARAM_DetTimeLimit                            75000
CPXPARAM_MIP_Tolerances_MIPGap                   0.01
CPXPARAM_MIP_Tolerances_Integrality              1.0000000000000001e-09
Warning:  No solution found from 1 MIP starts.
Retaining values of one MIP start for possible repair.
Tried aggregator 3 times.
MIP Presolve eliminated 88675 rows and 19743 columns.
MIP Presolve added 3356 rows and 0 columns.
MIP Presolve modified 23872 coefficients.
Aggregator did 12989 substitutions.
Reduced MIP has 24897 rows, 21237 columns, and 70969 nonzeros.
Reduced MIP has 8412 binaries, 0 generals, 0 SOSs, and 0 indicators.
Presolve time = 0.27 sec. (165.90 ticks)
Probing fixed 422 vars, tightened 2906 bounds.
Probing time = 3.13 sec. (906.71 ticks)
Tried aggregator 2 times.
MIP Presolve eliminated 947 rows and 845 columns.
MIP Presolve modified 2234 coefficients.
Aggregator did 36 substitutions.
Reduced MIP has 23914 rows, 20356 columns, and 68117 nonzeros.
Reduced MIP has 7990 binaries, 0 generals, 0 SOSs, and 0 indicators.
Presolve time = 0.16 sec. (55.70 ticks)
Probing time = 0.06 sec. (15.29 ticks)
Clique table members: 6330.
MIP emphasis: balance optimality and feasibility.
MIP search method: dynamic search.
Parallel mode: opportunistic, using up to 4 threads.
Root relaxation solution time = 0.41 sec. (201.15 ticks)

        Nodes                                         Cuts/
   Node  Left     Objective  IInf  Best Integer    Best Bound    ItCnt     Gap

      0     0   127830.3773  1703                 127830.3773     2583         
      0     0   124287.4274   701                   Cuts: 622     2920         
      0     0   123921.5162   561                   Cuts: 322     3108         
      0     0   123649.0650   511                   Cuts: 120     3168         
      0     0   122760.6605   466                   Cuts: 105     3240         
      0     0   122722.7109   434                    Cuts: 75     3279         
      0     0   122722.7109   411                    Cuts: 58     3308         
      0     0   122722.7109   398                    Cuts: 62     3328         
      0     0   122722.7109   385                    Cuts: 33     3344         
      0     0   122722.7109   387                    Cuts: 23     3350         
      0     0   122722.7109   386                    Cuts: 22     3354         
Repair heuristic found nothing.
      0     2   122722.7109   384                 121405.5389     3355         
Elapsed time = 27.55 sec. (10333.65 ticks, tree = 0.03 MB, solutions = 0)
     65    43    infeasible                       118494.7915     4508         
    153    88    85668.6207   279                 118494.7915     5151         
    217   166    90430.5180   281                 118494.7915     6341         
    281   199    65124.9294   274                 118494.7915     8958         
    324   247    64263.1450   261                 118494.7915     9396         
    386   290    72229.0286   278                 118494.7915     9851         
    436   352    43453.8878   245                 118494.7915    10696         
    502   371    61402.0844   283                 118494.7915    11199         
    584   444    infeasible                       118494.7915    12200         
   1016   854    59778.9382   278                 118494.7915    13491         
Elapsed time = 33.72 sec. (13473.14 ticks, tree = 9.85 MB, solutions = 0)
   1456  1185    59302.8800   207                 118494.7915    14620         
   1685  1360    34490.4766   148                 118494.7915    16041         
   1849  1453   109112.8141   328                 118494.7915    18556         
   2071  1483    86501.2070   264                 118469.3780    19846         
   2276  1695    infeasible                       118469.3780    20155         
   2498  1785    63489.8237   153                 118469.3780    21860         
   2778  1911    65922.1614   268                 118469.3780    25242         
   2990  2035    60077.3370    75                 118469.3780    26566         
   3166  2099    31491.6966     8                 118469.3780    27061         
   3318  2155    43559.1412   260                 118469.3780    26663         
Elapsed time = 50.89 sec. (23033.59 ticks, tree = 22.79 MB, solutions = 0)
   3497  2265    42439.4440   168                 118469.3780    26818         
   3616  2664    54586.2799   235                 117841.1926    32253         
   3723  2767    54586.2799   140                 117841.1926    32370         
   3812  2842   -27734.3095   280                 117841.1926    33436         
   3897  2918    57842.9304   265                 117841.1926    34154         
   4016  3030    46727.4942   201                 117841.1926    34449         
   4165  3175    45712.7556   315                 117841.1926    34748         
   4275  2148  -197623.0647    18                 117841.1926    28177         
   4466  3365    62583.9610   247                 117841.1926    35743         
   4696  3533    62159.2661   180                 117841.1926    35868         
Elapsed time = 60.31 sec. (32626.78 ticks, tree = 34.41 MB, solutions = 0)
   4847  2685    53265.0138   197                 117841.1926    32154         
   4869  2665    infeasible                       117841.1926    32331         
   4870  4216    98852.9708   236                 108725.8267    46271         
   5075   142     9891.0971   194                 101693.8139    48771         
   5267   322    55888.9237   185                 101693.8139    51704         
   5481   433    28860.2135   186                 101693.8139    53250         
*  5636+  448                        55260.5778    97832.4716            77.04%
   6018   399    58780.8348   246    55260.5778    97832.4716    56602   77.04%
   6277   617    62284.9727   193    55260.5778    97832.4716    59490   77.04%
   6551   809    62629.3820   173    55260.5778    97832.4716    61004   77.04%
Elapsed time = 104.61 sec. (50430.29 ticks, tree = 10.90 MB, solutions = 1)
   6916  1247    56957.4614    73    55260.5778    97832.4716    63655   77.04%
   7111  1456    60437.4535   172    55260.5778    97832.4716    65183   77.04%
   7151  1487    62616.8197   163    55260.5778    97832.4716    65675   77.04%
   7332  1707    58449.3614   151    55260.5778    97832.4716    67566   77.04%
   7567  1842        cutoff          55260.5778    97832.4716    67771   77.04%
   7646  1673        cutoff          55260.5778    97832.4716    67574   77.04%
   7647  2017    89897.7154   180    55260.5778    97832.4716    77650   77.04%
   7740    58    72564.4451   100    55260.5778    91680.1049    78900   65.91%
   7939   198        cutoff          55260.5778    91680.1049    80172   65.91%
   8093   334    64239.4228   108    55260.5778    78684.6319    81602   42.39%
Elapsed time = 140.14 sec. (65476.17 ticks, tree = 2.39 MB, solutions = 1)
   8278   402    70553.6265   110    55260.5778    77857.9422    82084   40.89%
   8463   522    55353.5551    77    55260.5778    77857.9422    83234   40.89%
   8609   704    55759.3363    26    55260.5778    77857.9422    84571   40.89%
   8820   804    55346.1698    73    55260.5778    73290.3216    85620   32.63%
   8970   985    61882.9576    64    55260.5778    73290.3216    87415   32.63%
   9162  1117    59919.4340    51    55260.5778    72923.4620    88597   31.96%
   9339  1160    66888.2334    77    55260.5778    72750.6563    89115   31.65%
   9483  1371    69627.4450   101    55260.5778    72750.6563    90724   31.65%
   9576  1399    59006.6069    15    55260.5778    72750.6563    91072   31.65%

GUB cover cuts applied:  1
Cover cuts applied:  19
Implied bound cuts applied:  14
Flow cuts applied:  324
Mixed integer rounding cuts applied:  54
Gomory fractional cuts applied:  106

Root node processing (before b&c):
  Real time             =   27.19 sec. (10278.92 ticks)
Parallel b&c, 4 threads:
  Real time             =  133.59 sec. (65054.36 ticks)
  Sync time (average)   =    0.79 sec.
  Wait time (average)   =    0.04 sec.
                          ------------
Total (root+branch&cut) =  160.78 sec. (75333.28 ticks)

Solution pool: 1 solution saved.

MIP - Deterministic time limit exceeded, integer feasible:  Objective =  5.5260577823e+04
Current MIP best bound =  7.2750656350e+04 (gap = 17490.1, 31.65%)
Solution time =  160.80 sec.  Iterations = 91935  Nodes = 9596 (1490)
Deterministic time = 75333.44 ticks  (468.50 ticks/sec)

CPLEX> Incumbent solution written to file 'C:\Users\llavi\Desktop\test919\logs\tmp_glrc5uz.cplex.sol'.
CPLEX> Exporting results... 
